15 6 3.1 1 3 2 8 8200 4104
2 2 0 0 1 3
1 80
1 14
2 13
3 11
1 570
2 520
1 1 0 590
2 1 0 570
3 1 0 580
4 1 0 510
5 2 0 540
6 2 0 580
7 2 0 500
8 2 0 540
0 4 1 80 2 80 3 250 4 80 10 2 4 2 16 1 2 3 5 1 2 4 14 1 5 1 9 1 5 2 4 2 12 1 4 1 18 1 3 3 10 1 1 4 13 1 4 2 2 2 7 1 4 1 13 1 1 3 2 3 5 1 1 2 10 1 5 3 4 2 8 1 2 1 18 1 4 3 14 1 4 4 15 1 4 2 4 1 17 1 5 2 20 1 5 3 14 1 1 4 5 1 5 2 3 1 9 1 2 2 6 1 3 3 12 1 3 1 4 2 13 1 3 1 10 1 3 3 7 1 1 4 11 1 5 1 3 2 19 1 2 3 8 1 3 4 7 1 3 1 2 1 12 1 4 2 12 1 4 
0 4 1 120 2 80 3 60 4 110 11 3 4 2 13 1 3 3 10 1 2 4 7 1 2 1 11 1 5 3 4 2 16 1 5 1 9 1 2 3 19 1 2 4 11 1 4 2 4 2 9 1 3 1 17 1 1 3 9 1 3 4 16 1 5 2 4 2 6 1 1 1 18 1 3 3 8 1 4 4 16 1 5 2 2 2 11 1 4 3 14 1 3 2 2 2 7 1 4 1 5 1 2 3 4 1 20 1 2 2 18 1 1 3 8 1 3 4 15 1 5 1 3 1 20 1 4 2 11 1 3 3 14 1 4 3 2 2 5 1 4 3 13 1 4 3 4 1 12 1 1 2 17 1 5 3 6 1 2 4 20 1 5 2 4 1 8 1 3 2 6 1 3 3 10 1 1 4 16 1 1 
0 4 1 180 2 160 3 140 4 90 12 2 3 2 5 1 2 3 20 1 2 4 12 1 1 3 4 1 7 1 2 2 18 1 5 3 5 1 2 4 18 1 3 2 4 3 9 1 3 1 19 1 2 2 9 1 1 4 17 1 5 1 4 2 17 1 3 1 6 1 4 3 13 1 3 4 15 1 1 1 3 1 10 1 3 2 16 1 3 3 7 1 3 1 4 2 14 1 1 1 5 1 1 3 9 1 1 4 16 1 5 2 2 1 7 1 5 2 14 1 3 2 4 3 12 1 3 1 8 1 5 2 7 1 2 4 15 1 3 3 4 3 17 1 1 1 6 1 4 2 10 1 5 4 19 1 3 3 4 1 19 1 4 2 6 1 1 3 20 1 3 4 12 1 2 2 2 2 18 1 2 1 12 1 5 2 4 1 18 1 5 2 5 1 3 3 16 1 1 4 15 1 5 
0 4 1 150 2 120 3 50 4 110 10 2 2 3 14 1 1 4 14 1 4 3 2 2 13 1 1 3 20 1 3 2 3 3 13 1 3 1 18 1 4 2 17 1 2 3 2 3 6 1 5 2 6 1 3 1 3 2 18 1 1 1 19 1 1 3 15 1 5 3 2 1 15 1 4 3 18 1 4 1 4 2 11 1 5 1 5 1 5 3 19 1 5 4 20 1 1 2 3 1 17 1 2 2 8 1 1 3 16 1 5 1 4 2 14 1 5 1 7 1 1 3 15 1 1 4 16 1 2 3 3 2 13 1 4 1 19 1 4 3 20 1 4 
0 4 1 60 2 130 3 80 4 120 9 1 4 1 6 1 4 2 14 1 1 3 7 1 3 4 13 1 5 1 4 2 16 1 1 3 12 1 3 1 13 1 4 4 6 1 1 1 4 4 19 1 3 1 9 1 2 2 18 1 1 3 14 1 2 1 4 1 6 1 1 2 16 1 2 3 7 1 3 4 11 1 2 2 3 1 18 1 3 2 7 1 5 3 7 1 2 2 4 3 12 1 3 1 17 1 1 2 18 1 4 4 7 1 5 2 2 1 18 1 2 3 20 1 3 1 4 2 12 1 1 1 12 1 2 3 9 1 1 4 6 1 5 2 3 2 20 1 3 1 7 1 5 3 8 1 2 
4 1 140 2 80 3 190 4 90 4 5 140 6 120 7 100 8 150 8 2 3 1 5 1 2 4 7 1 3 2 6 1 5 1 4 4 19 1 3 3 5 1 4 1 20 1 3 2 20 1 1 1 3 2 10 1 4 3 17 1 2 1 20 1 4 2 3 2 20 1 5 1 12 1 5 3 16 1 5 3 4 3 13 1 1 1 5 1 2 2 15 1 1 4 9 1 1 1 3 2 17 1 2 3 13 1 3 1 12 1 2 1 2 3 18 1 1 1 12 1 1 1 2 1 6 1 1 2 16 1 2 
4 1 70 2 180 3 130 4 140 4 5 100 6 90 7 60 8 50 10 2 3 1 8 1 2 2 7 1 4 3 16 1 1 2 2 2 20 1 1 3 15 1 5 3 3 2 19 1 1 1 5 1 3 3 11 1 3 2 2 1 6 1 1 2 10 1 2 2 2 2 18 1 4 3 18 1 2 1 3 3 10 1 4 1 8 1 2 2 8 1 5 2 3 1 19 1 3 3 18 1 2 2 12 1 5 2 2 1 16 1 3 2 10 1 1 3 2 2 18 1 4 3 15 1 4 3 4 2 20 1 2 3 10 1 4 1 14 1 1 4 6 1 4 
4 1 150 2 80 3 70 4 100 4 5 110 6 150 7 100 8 90 8 2 3 2 8 1 3 1 13 1 4 3 5 1 5 1 2 2 6 1 5 3 8 1 1 3 4 3 9 1 1 1 17 1 5 2 13 1 5 4 20 1 2 1 4 3 20 1 5 1 8 1 5 4 8 1 5 2 11 1 5 3 4 2 10 1 1 1 13 1 4 3 7 1 2 4 10 1 5 3 4 2 18 1 3 1 17 1 2 3 17 1 3 4 14 1 3 1 2 1 12 1 4 2 15 1 3 3 4 2 8 1 5 1 10 1 3 3 7 1 2 4 19 1 2 
4 1 130 2 100 3 50 4 90 4 5 110 6 100 7 100 8 150 11 3 3 1 9 1 5 2 7 1 5 3 14 1 4 3 4 2 9 1 1 3 15 1 1 1 16 1 4 4 14 1 3 1 2 1 8 1 5 2 19 1 5 3 3 2 16 1 3 3 18 1 2 1 14 1 2 3 4 3 7 1 1 1 17 1 4 2 10 1 3 4 13 1 2 3 3 2 5 1 5 1 16 1 3 3 5 1 1 1 2 2 11 1 2 1 8 1 3 2 2 1 11 1 3 2 16 1 3 3 4 2 8 1 3 3 11 1 2 1 18 1 4 4 10 1 5 1 3 3 5 1 4 2 8 1 5 4 8 1 2 3 3 2 9 1 4 3 5 1 4 4 14 1 3 
4 1 100 2 130 3 140 4 90 4 5 80 6 120 7 140 8 100 10 1 3 3 19 1 4 1 14 1 5 2 17 1 3 3 3 2 5 1 1 1 13 1 4 3 7 1 1 1 4 1 16 1 3 2 16 1 1 3 12 1 1 4 14 1 1 1 4 1 5 1 2 2 16 1 5 3 8 1 5 4 17 1 2 1 3 3 10 1 1 2 5 1 2 4 7 1 1 1 3 1 16 1 2 3 8 1 2 2 16 1 5 1 4 3 14 1 4 2 20 1 3 1 8 1 5 4 13 1 2 3 3 3 13 1 5 4 20 1 4 2 8 1 1 1 2 3 19 1 2 2 5 1 2 1 4 3 11 1 1 4 16 1 3 1 7 1 2 2 5 1 4 
4 5 80 6 90 7 80 8 120 0 9 2 2 3 7 1 3 2 12 1 5 1 4 1 13 1 1 3 9 1 2 4 19 1 2 2 8 1 5 1 4 2 16 1 4 3 19 1 4 4 16 1 4 5 13 1 2 2 3 1 7 1 5 2 6 1 1 3 16 1 1 1 4 3 15 1 1 2 17 1 3 4 7 1 5 1 12 1 1 1 2 3 16 1 2 2 8 1 5 2 3 1 17 1 2 2 18 1 2 3 5 1 4 1 3 2 11 1 4 1 15 1 4 3 8 1 5 2 2 2 18 1 4 3 9 1 2 
4 5 140 6 140 7 90 8 90 0 9 1 4 1 14 1 5 2 19 1 2 3 20 1 3 4 6 1 5 3 4 2 7 1 2 1 12 1 1 3 9 1 3 4 6 1 1 1 3 1 20 1 3 2 15 1 2 3 17 1 3 1 3 1 17 1 3 2 9 1 3 3 11 1 3 2 3 2 10 1 5 1 13 1 4 3 5 1 5 3 3 3 7 1 3 4 16 1 2 2 14 1 4 1 3 2 11 1 3 1 16 1 1 3 9 1 1 3 2 3 20 1 3 1 16 1 5 3 4 3 9 1 5 2 12 1 1 1 16 1 1 4 16 1 1 
4 5 150 6 90 7 140 8 140 0 8 2 2 1 8 1 1 2 17 1 3 3 4 4 19 1 3 1 15 1 1 2 8 1 3 3 10 1 5 3 2 3 10 1 1 1 9 1 4 1 4 1 13 1 2 2 17 1 4 3 16 1 5 4 20 1 2 2 3 2 16 1 3 1 19 1 5 3 14 1 5 1 2 1 5 1 1 2 7 1 2 2 3 2 5 1 5 1 6 1 3 3 13 1 5 2 3 2 10 1 3 3 5 1 4 1 20 1 4 
4 5 60 6 160 7 60 8 50 0 11 3 3 5 7 1 4 2 5 1 4 1 12 1 2 2 2 2 6 1 1 1 10 1 3 3 2 1 11 1 1 3 7 1 2 2 3 2 8 1 2 1 20 1 2 3 18 1 4 2 2 3 6 1 4 4 8 1 4 2 2 1 18 1 4 3 11 1 2 2 3 3 19 1 3 1 16 1 1 2 17 1 3 1 4 1 14 1 3 2 20 1 3 3 6 1 3 4 17 1 2 1 2 2 14 1 2 3 5 1 3 3 4 3 12 1 4 2 18 1 1 1 12 1 4 4 13 1 4 2 3 1 20 1 5 2 9 1 1 3 15 1 2 
4 5 110 6 100 7 130 8 140 0 10 2 2 2 17 1 4 1 12 1 1 2 4 2 15 1 5 1 12 1 4 3 6 1 3 4 7 1 5 1 4 2 9 1 2 1 10 1 5 3 9 1 4 4 17 1 5 2 2 1 20 1 3 2 14 1 1 1 2 1 6 1 1 2 16 1 3 1 4 1 7 1 1 2 11 1 5 3 20 1 2 4 10 1 1 1 2 1 19 1 3 3 8 1 5 1 2 1 14 1 1 2 17 1 2 2 4 2 12 1 3 1 7 1 1 3 11 1 4 4 8 1 4 3 3 2 20 1 2 3 14 1 5 1 6 1 3 
